NCORE = 24
ENCUT = 500.0

NSW = 500
ISIF = 3
ISMEAR = -1
SIGMA = 0.07755595334767
ISPIN = 2
LANGEVIN_GAMMA = 10 10
LANGEVIN_GAMMA_L = 1
POTIM = 2

TEBEG = 900
TEEND = 900
PSTRESS = 0

ALGO = Fast
PREC = Normal
BMIX = 1
EDIFF = 1e-05
IALGO = 48
IBRION = 0
ISYM = 0
KBLOCK = 100
LCHARG = False
LORBIT = 11
LPLANE = False
LREAL = True
LWAVE = True
MAXMIX = 20
MDALGO = 3
NELM = 500
NELMIN = 4
NSIM = 4

PMASS = 10
SMASS = 0
NWRITE = 0