k-points along high symmetry lines
  45  ! 45 intersections
Line-mode
r
  0.50000000   0.0000000   0.0    !M 
  0.00000000   0.0000000   0.0    !G

  0.00000000   0.0000000   0.0    !G
  0.66666666   0.3333333   0.0    !K

  0.66666666   0.3333333   0.0    !K
  0.50000000   0.0000000   0.0    !M
