Automatic mesh 
0
Gamma                                
25    25    11
