Automatic mesh 
0
Monkhorst Pack                               
 70   70   1
